Timesteps: 1
s UNSATISFIABLE
real 0.21
user 0.05
sys 0.00
Timesteps: 2
s UNSATISFIABLE
real 0.37
user 0.10
sys 0.01
Timesteps: 3
s UNSATISFIABLE
real 0.40
user 0.20
sys 0.01
Timesteps: 4
s UNSATISFIABLE
real 0.81
user 0.54
sys 0.02
Timesteps: 5
s UNSATISFIABLE
real 2.03
user 1.71
sys 0.02
Timesteps: 6
s UNSATISFIABLE
real 7.74
user 6.82
sys 0.04
Timesteps: 7
s UNSATISFIABLE
real 16.20
user 15.08
sys 0.06
Timesteps: 8
s UNSATISFIABLE
real 29.04
user 27.66
sys 0.10
Timesteps: 9
s UNSATISFIABLE
real 35.24
user 33.73
sys 0.11
Timesteps: 10
s UNSATISFIABLE
real 53.62
user 51.91
sys 0.12
Timesteps: 11
s UNSATISFIABLE
real 93.69
user 91.62
sys 0.17
Timesteps: 12
s UNSATISFIABLE
real 159.51
user 157.13
sys 0.22
Timesteps: 13
s UNSATISFIABLE
real 488.01
user 485.00
sys 0.44
Timesteps: 14
s UNSATISFIABLE
real 1535.17
user 1527.09
sys 1.06
Timesteps: 15
